NAME : rc_202.1.8504819.tour
COMMENT : Length = 8504819
COMMENT : Found by LKH [Keld Helsgaun] Tue Nov  7 19:55:43 2017
TYPE : TOUR
DIMENSION : 33
TOUR_SECTION
1
31
5
16
22
27
14
9
8
7
12
10
11
24
3
2
19
6
29
28
21
26
17
4
23
20
33
18
15
13
30
32
25
-1
EOF
